*SENSE:Minimize
NAME          MODEL
ROWS
 N  OBJ
 G  C0000000
 G  C0000001
 G  C0000002
 L  C0000003
 L  C0000004
 L  C0000005
 E  C0000006
COLUMNS
    X0000000  C0000000   1.000000000000e+00
    X0000000  C0000003   1.000000000000e+00
    X0000000  C0000006   1.000000000000e+00
    X0000000  OBJ        6.790000000000e+01
    X0000001  C0000001   1.000000000000e+00
    X0000001  C0000004   1.000000000000e+00
    X0000001  C0000006   1.000000000000e+00
    X0000001  OBJ        3.285000000000e+01
    X0000002  C0000002   1.000000000000e+00
    X0000002  C0000005   1.000000000000e+00
    X0000002  C0000006   1.000000000000e+00
    X0000002  OBJ        4.456000000000e+01
    MARK      'MARKER'                 'INTORG'
    X0000003  C0000000  -2.500000000000e+02
    X0000003  C0000003  -1.000000000000e+02
    MARK      'MARKER'                 'INTEND'
    MARK      'MARKER'                 'INTORG'
    X0000004  C0000001  -2.000000000000e+02
    X0000004  C0000004  -4.000000000000e+02
    MARK      'MARKER'                 'INTEND'
    MARK      'MARKER'                 'INTORG'
    X0000005  C0000002  -1.500000000000e+02
    X0000005  C0000005  -1.000000000000e+03
    MARK      'MARKER'                 'INTEND'
RHS
    RHS       C0000000   0.000000000000e+00
    RHS       C0000001   0.000000000000e+00
    RHS       C0000002   0.000000000000e+00
    RHS       C0000003   0.000000000000e+00
    RHS       C0000004   0.000000000000e+00
    RHS       C0000005   0.000000000000e+00
    RHS       C0000006   5.000000000000e+02
BOUNDS
 UP BND       X0000000   1.000000000000e+02
 UP BND       X0000001   4.000000000000e+02
 UP BND       X0000002   1.000000000000e+03
 BV BND       X0000003
 BV BND       X0000004
 BV BND       X0000005
ENDATA
